outputs/case_68.model.txt
insurance_broker_regulations_complied = True
broker_fulfilled_fidelity_duty = True
broker_charged_fee = 0
broker_exercised_due_care = True
insurance_policy_guarantee = False
guarantee_deposit_amount = 500000
fee_disclosure_made = True
insurance_agent_regulations_complied = True
insurance_policy_responsibility = True
has_practice_certificate = True
bank_engaged_in_insurance_agent_or_broker = True
insurance_policy_valid = True
guarantee_deposit_minimum_set_by_authority = True
guarantee_deposit_minimum = 1000000
agent_type = 1
licensed = True
license_revocation_procedures_complied = True
minimum_guarantee_and_insurance_amount_set = True
broker_duty_of_care_and_fidelity = True
management_rules_compliance = True
financial_and_business_management_compliant = True
required_documents_submitted = True
violation_penalty = False
education_and_training_compliant = True
application_procedure_complied = True
broker_written_report_and_fee_disclosure = True
other_management_rules_complied = True
board_and_supervisor_qualifications_met = True
branch_establishment_conditions_met = True
penalty = False
written_analysis_report_provided = True
qualification_requirements_met = True
license_and_guarantee_compliance = False
bank_permission_and_separate_compliance = True
insurance_policy_type_compliance = True